DPLCSO                       
   1.00000000000000     
    6.31205 0.00   0.0   
    0.00  5.39336  0.00   
    0.0   0.000    4.99926  
   Co   Li   Si   O 
    2    4    2    8 
Direct
  0.245920    0.329940    0.486310 
  0.745920    0.670060    0.986310       
  0.251920    0.677780    0.985050       
  0.751920    0.322220    0.485050       
  0.000520    0.155470    0.984350       
  0.500520    0.844530    0.484350       
  0.500400    0.172880    0.991450       
  0.000400    0.827120    0.491450       
  0.283640    0.317420    0.886170  
  0.216580    0.684710    0.382680       
  0.783640    0.682580    0.386170       
  0.716580    0.315290    0.882680       
  0.000190    0.117350    0.384310       
  0.500190    0.882650    0.884310       
  0.500820    0.179150    0.322180       
  0.000820    0.820850    0.822180        