NaCl                                  
   1.00000000000000     
     5.6402   0.0000    0.0000
     0.0000   5.6402    0.0000
     0.0000   0.0000    5.6402
Na Cl 
    4   4
Direct
  0.0000  0.0000  0.0000  
  0.5000  0.5000  0.0000  
  0.5000  0.0000  0.5000  
  0.0000  0.5000  0.5000  
  0.5000  0.0000  0.0000  
  0.0000  0.5000  0.0000  
  0.0000  0.0000  0.5000  
  0.5000  0.5000  0.5000  
  