LiCoO2                                  
   1.00000000000000     
     5.6841130595217653   -0.0012518230324363    0.0000543988282933
    -2.8431405343698959    4.9218361996788289    0.0000168639731660
     0.0001371949864835    0.0001296446230624   14.3206488474850584
Li   Co 		O  
    12    12    24
Direct
  0.0000  0.0000  0.0000  
  0.3333  0.1666  0.3333  
  0.1666  0.3333  0.6666  
  0.4999 -0.0000  0.0000  
  0.8333  0.1666  0.3333  
  0.6666  0.3333  0.6666  
  0.0000  0.5000  0.0000  
  0.3333  0.6666  0.3333  
  0.1666  0.8333  0.6666  
  0.4999  0.4999  0.0000  
  0.8333  0.6666  0.3333  
  0.6666  0.8333  0.6666  
  0.0000  0.0000  0.5000  
  0.3333  0.1666  0.8333  
  0.1666  0.3333  0.1666  
  0.4999  0.0000  0.5000  
  0.8333  0.1666  0.8333  
  0.6666  0.3333  0.1666  
  0.0000  0.5000  0.5000  
  0.3333  0.6666  0.8333  
  0.1666  0.8333  0.1666  
  0.4999  0.4999  0.5000  
  0.8333  0.6666  0.8333  
  0.6666  0.8333  0.1666  
 -0.0000  0.0000  0.2464  
 -0.0000 -0.0000  0.7535  
  0.3333  0.1666  0.5798  
  0.3333  0.1666  0.0867  
  0.1666  0.3333  0.9131  
  0.1666  0.3333  0.4201  
  0.5000 -0.0000  0.2464  
  0.4999  0.0000  0.7535  
  0.8333  0.1666  0.5798  
  0.8333  0.1666  0.0868  
  0.6666  0.3333  0.9132  
  0.6666  0.3333  0.4201  
  0.0000  0.5000  0.2464  
 -0.0000  0.4999  0.7535  
  0.3333  0.6666  0.5798  
  0.3333  0.6666  0.0867  
  0.1666  0.8333  0.9131  
  0.1666  0.8333  0.4201  
  0.5000  0.5000  0.2464  
  0.4999  0.4999  0.7535  
  0.8333  0.6666  0.5798  
  0.8333  0.6666  0.0868  
  0.6666  0.8333  0.9131  
  0.6666  0.8333  0.4201  

