p42nmc_Li6CoO4_d                        
   1.00000000000000     
     6.5004696596204132    0.0000000000000000   -0.0000000000000000
    -0.0000000000000000    6.5004696596204132   -0.0000000000000000
     0.0000000000000000    0.0000000000000000    4.6179635409860538
   Li   Co   O 
    12     2     8
Direct
  0.2500000000000000  0.2500000000000000  0.2930782406120466
  0.2500000000000000  0.2500000000000000  0.7930782406120467
  0.7500000000000000  0.7500000000000000  0.7069217593879533
  0.7500000000000000  0.7500000000000000  0.2069217593879535
  0.0322683538259017  0.5322683538259019  0.7500000000000000
  0.9677316461740981  0.0322683538259017  0.2500000000000000
  0.4677316461740983  0.9677316461740981  0.7500000000000000
  0.4677316461740983  0.5322683538259019  0.7500000000000000
  0.9677316461740981  0.4677316461740983  0.2500000000000000
  0.0322683538259017  0.9677316461740981  0.7500000000000000
  0.5322683538259019  0.0322683538259017  0.2500000000000000
  0.5322683538259019  0.4677316461740983  0.2500000000000000
  0.7500000000000000  0.2500000000000000  0.7500000000000000
  0.2500000000000000  0.7500000000000000  0.2500000000000000
  0.2500000000000000  0.0140274472439107  0.0319008882077745
  0.4859725527560894  0.2500000000000000  0.5319008882077744
  0.2500000000000000  0.4859725527560894  0.0319008882077745
  0.0140274472439107  0.2500000000000000  0.5319008882077744
  0.7500000000000000  0.9859725527560893  0.9680991117922256
  0.7500000000000000  0.5140274472439107  0.9680991117922256
  0.5140274472439107  0.7500000000000000  0.4680991117922254
  0.9859725527560893  0.7500000000000000  0.4680991117922254